p cnf 68 128
-1 -2 -3 -6 0
-2 -3 -4 -12 0
-2 -4 -6 -12 0
-3 -4 -6 -12 0
-2 -3 -6 0
-5 -6 -10 -15 0
-4 -5 -10 -12 -15 0
-2 -3 -5 -10 -15 0
-4 -10 -12 -15 0
-2 -3 -10 -15 0
-6 -10 -15 0
1 18 0
-1 -18 0
2 19 0
-2 -19 0
3 20 0
-3 -20 0
4 21 0
-4 -21 0
5 22 0
-5 -22 0
6 23 0
-6 -23 0
7 24 0
-7 -24 0
8 25 0
-8 -25 0
9 26 0
-9 -26 0
10 27 0
-10 -27 0
11 28 0
-11 -28 0
12 29 0
-12 -29 0
13 30 0
-13 -30 0
14 31 0
-14 -31 0
15 32 0
-15 -32 0
16 33 0
-16 -33 0
17 34 0
-17 -34 0
-18 35 0
-36 0
-19 37 0
-35 37 0
-36 38 0
-19 -35 38 0
-19 -36 0
-20 39 0
-37 39 0
-38 40 0
-20 -37 40 0
-20 -38 0
-21 41 0
-39 41 0
-40 42 0
-21 -39 42 0
-21 -40 0
-22 43 0
-41 43 0
-42 44 0
-22 -41 44 0
-22 -42 0
-23 45 0
-43 45 0
-44 46 0
-23 -43 46 0
-23 -44 0
-24 47 0
-45 47 0
-46 48 0
-24 -45 48 0
-24 -46 0
-25 49 0
-47 49 0
-48 50 0
-25 -47 50 0
-25 -48 0
-26 51 0
-49 51 0
-50 52 0
-26 -49 52 0
-26 -50 0
-27 53 0
-51 53 0
-52 54 0
-27 -51 54 0
-27 -52 0
-28 55 0
-53 55 0
-54 56 0
-28 -53 56 0
-28 -54 0
-29 57 0
-55 57 0
-56 58 0
-29 -55 58 0
-29 -56 0
-30 59 0
-57 59 0
-58 60 0
-30 -57 60 0
-30 -58 0
-31 61 0
-59 61 0
-60 62 0
-31 -59 62 0
-31 -60 0
-32 63 0
-61 63 0
-62 64 0
-32 -61 64 0
-32 -62 0
-33 65 0
-63 65 0
-64 66 0
-33 -63 66 0
-33 -64 0
-34 67 0
-65 67 0
-66 68 0
-34 -65 68 0
-34 -66 0
-68 0
